(set-logic QF_S)
(declare-fun var_0xINPUT_2 () String)
(declare-fun T2_2 () String)
(declare-fun T2_6 () String)
(declare-fun T_2 () String)
(declare-fun T1_6 () String)
(declare-fun T1_2 () String)
(declare-fun PCTEMP_LHS_1 () String)
(assert (and (= PCTEMP_LHS_1 (concat T1_2 T2_2)) (= T2_2 "=Online") (= T1_2 var_0xINPUT_2) (= T_2 (concat T1_6 T2_6)) (= T2_6 "Now") (= T1_6 PCTEMP_LHS_1) (not (= T_2 "Hello=Joe=OnlineNow"))))
(check-sat var_0xINPUT_2)